min: c;

c = 4.2188546420216 * u3_t10_h0 + 3.48636302824652 * u3_t10_h1 + 3.3290569615496 * u3_t4_h2 + 3.3290569615496 * u3_t10_h2 + 3.05504408692884 * u3_t4_h3 + 3.05504408692884 * u3_t10_h3 + 3.60158066519843 * u3_t4_h4 + 3.60158066519843 * u3_t10_h4 + 3.18409426874709 * u3_t4_h5 + 3.18409426874709 * u3_t10_h5 + 3.8252904596349 * u3_t4_h6 + 3.8252904596349 * u3_t10_h6 + 4.20236469683055 * u3_t4_h7 + 4.20236469683055 * u3_t9_h7 + 4.20236469683055 * u3_t10_h7 + 5.49370608156819 * u3_t4_h8 + 5.49370608156819 * u3_t9_h8 + 4.94540583534894 * u3_t4_h9 + 4.94540583534894 * u3_t9_h9 + 5.51699536177672 * u3_t4_h10 + 5.51699536177672 * u3_t6_h10 + 5.51699536177672 * u3_t9_h10 + 3.68201402092796 * u3_t3_h11 + 3.68201402092796 * u3_t4_h11 + 3.68201402092796 * u3_t6_h11 + 3.68201402092796 * u3_t9_h11 + 6.49795403092821 * u3_t3_h12 + 6.49795403092821 * u3_t4_h12 + 6.49795403092821 * u3_t6_h12 + 6.49795403092821 * u3_t9_h12 + 4.46086453425624 * u3_t3_h13 + 4.46086453425624 * u3_t4_h13 + 4.46086453425624 * u3_t5_h13 + 4.46086453425624 * u3_t6_h13 + 4.46086453425624 * u3_t9_h13 + 5.62873630520466 * u3_t3_h14 + 5.62873630520466 * u3_t4_h14 + 5.62873630520466 * u3_t5_h14 + 5.62873630520466 * u3_t6_h14 + 5.62873630520466 * u3_t9_h14 + 5.71478462954955 * u3_t2_h15 + 5.71478462954955 * u3_t3_h15 + 5.71478462954955 * u3_t4_h15 + 5.71478462954955 * u3_t5_h15 + 5.71478462954955 * u3_t6_h15 + 5.71478462954955 * u3_t9_h15 + 6.32676153018085 * u3_t2_h16 + 6.32676153018085 * u3_t4_h16 + 6.32676153018085 * u3_t5_h16 + 6.32676153018085 * u3_t6_h16 + 6.32676153018085 * u3_t9_h16 + 6.69162389965542 * u3_t2_h17 + 6.69162389965542 * u3_t4_h17 + 6.69162389965542 * u3_t6_h17 + 6.69162389965542 * u3_t9_h17 + 6.67283411929138 * u3_t2_h18 + 6.67283411929138 * u3_t6_h18 + 6.67283411929138 * u3_t9_h18 + 5.81991288986062 * u3_t2_h19 + 5.81991288986062 * u3_t9_h19 + 5.76369007145477 * u3_t1_h20 + 5.76369007145477 * u3_t2_h20 + 5.76369007145477 * u3_t8_h20 + 5.76369007145477 * u3_t9_h20 + 5.22709510137068 * u3_t1_h21 + 5.22709510137068 * u3_t2_h21 + 5.22709510137068 * u3_t7_h21 + 5.22709510137068 * u3_t8_h21 + 5.22709510137068 * u3_t9_h21 + 5.12829541645827 * u3_t1_h22 + 5.12829541645827 * u3_t7_h22 + 5.12829541645827 * u3_t8_h22 + 5.44571385465919 * u3_t1_h23 + 5.44571385465919 * u3_t7_h23 + 5.44571385465919 * u3_t8_h23;
0 <= u3_t1_h20 <= 1;
0 <= u3_t1_h21 <= 1;
0 <= u3_t1_h22 <= 1;
0 <= u3_t1_h23 <= 1;
u3_t1_h20 + u3_t1_h21 + u3_t1_h22 + u3_t1_h23 = 2;
0 <= u3_t2_h15 <= 1;
0 <= u3_t2_h16 <= 1;
0 <= u3_t2_h17 <= 1;
0 <= u3_t2_h18 <= 1;
0 <= u3_t2_h19 <= 1;
0 <= u3_t2_h20 <= 1;
0 <= u3_t2_h21 <= 1;
u3_t2_h15 + u3_t2_h16 + u3_t2_h17 + u3_t2_h18 + u3_t2_h19 + u3_t2_h20 + u3_t2_h21 = 3;
0 <= u3_t3_h11 <= 1;
0 <= u3_t3_h12 <= 1;
0 <= u3_t3_h13 <= 1;
0 <= u3_t3_h14 <= 1;
0 <= u3_t3_h15 <= 1;
u3_t3_h11 + u3_t3_h12 + u3_t3_h13 + u3_t3_h14 + u3_t3_h15 = 2;
0 <= u3_t4_h2 <= 1;
0 <= u3_t4_h3 <= 1;
0 <= u3_t4_h4 <= 1;
0 <= u3_t4_h5 <= 1;
0 <= u3_t4_h6 <= 1;
0 <= u3_t4_h7 <= 1;
0 <= u3_t4_h8 <= 1;
0 <= u3_t4_h9 <= 1;
0 <= u3_t4_h10 <= 1;
0 <= u3_t4_h11 <= 1;
0 <= u3_t4_h12 <= 1;
0 <= u3_t4_h13 <= 1;
0 <= u3_t4_h14 <= 1;
0 <= u3_t4_h15 <= 1;
0 <= u3_t4_h16 <= 1;
0 <= u3_t4_h17 <= 1;
u3_t4_h2 + u3_t4_h3 + u3_t4_h4 + u3_t4_h5 + u3_t4_h6 + u3_t4_h7 + u3_t4_h8 + u3_t4_h9 + u3_t4_h10 + u3_t4_h11 + u3_t4_h12 + u3_t4_h13 + u3_t4_h14 + u3_t4_h15 + u3_t4_h16 + u3_t4_h17 = 3;
0 <= u3_t5_h13 <= 1;
0 <= u3_t5_h14 <= 1;
0 <= u3_t5_h15 <= 1;
0 <= u3_t5_h16 <= 1;
u3_t5_h13 + u3_t5_h14 + u3_t5_h15 + u3_t5_h16 = 2;
0 <= u3_t6_h10 <= 1;
0 <= u3_t6_h11 <= 1;
0 <= u3_t6_h12 <= 1;
0 <= u3_t6_h13 <= 1;
0 <= u3_t6_h14 <= 1;
0 <= u3_t6_h15 <= 1;
0 <= u3_t6_h16 <= 1;
0 <= u3_t6_h17 <= 1;
0 <= u3_t6_h18 <= 1;
u3_t6_h10 + u3_t6_h11 + u3_t6_h12 + u3_t6_h13 + u3_t6_h14 + u3_t6_h15 + u3_t6_h16 + u3_t6_h17 + u3_t6_h18 = 2;
0 <= u3_t7_h21 <= 1;
0 <= u3_t7_h22 <= 1;
0 <= u3_t7_h23 <= 1;
u3_t7_h21 + u3_t7_h22 + u3_t7_h23 = 2;
0 <= u3_t8_h20 <= 1;
0 <= u3_t8_h21 <= 1;
0 <= u3_t8_h22 <= 1;
0 <= u3_t8_h23 <= 1;
u3_t8_h20 + u3_t8_h21 + u3_t8_h22 + u3_t8_h23 = 1;
0 <= u3_t9_h7 <= 1;
0 <= u3_t9_h8 <= 1;
0 <= u3_t9_h9 <= 1;
0 <= u3_t9_h10 <= 1;
0 <= u3_t9_h11 <= 1;
0 <= u3_t9_h12 <= 1;
0 <= u3_t9_h13 <= 1;
0 <= u3_t9_h14 <= 1;
0 <= u3_t9_h15 <= 1;
0 <= u3_t9_h16 <= 1;
0 <= u3_t9_h17 <= 1;
0 <= u3_t9_h18 <= 1;
0 <= u3_t9_h19 <= 1;
0 <= u3_t9_h20 <= 1;
0 <= u3_t9_h21 <= 1;
u3_t9_h7 + u3_t9_h8 + u3_t9_h9 + u3_t9_h10 + u3_t9_h11 + u3_t9_h12 + u3_t9_h13 + u3_t9_h14 + u3_t9_h15 + u3_t9_h16 + u3_t9_h17 + u3_t9_h18 + u3_t9_h19 + u3_t9_h20 + u3_t9_h21 = 2;
0 <= u3_t10_h0 <= 1;
0 <= u3_t10_h1 <= 1;
0 <= u3_t10_h2 <= 1;
0 <= u3_t10_h3 <= 1;
0 <= u3_t10_h4 <= 1;
0 <= u3_t10_h5 <= 1;
0 <= u3_t10_h6 <= 1;
0 <= u3_t10_h7 <= 1;
u3_t10_h0 + u3_t10_h1 + u3_t10_h2 + u3_t10_h3 + u3_t10_h4 + u3_t10_h5 + u3_t10_h6 + u3_t10_h7 = 3;
